objective value:                                  -15
t_n_0                                               1 	(obj:-1)
t_n_106                                             1 	(obj:-1)
t_n_185                                             1 	(obj:-1)
t_n_249                                             1 	(obj:-1)
t_n_351                                             1 	(obj:-1)
t_n_373                                             1 	(obj:-1)
t_n_497                                             1 	(obj:-1)
t_n_611                                             1 	(obj:-1)
t_n_634                                             1 	(obj:-1)
t_n_739                                             1 	(obj:-1)
t_n_851                                             1 	(obj:-1)
t_n_861                                             1 	(obj:-1)
t_n_875                                             1 	(obj:-1)
t_n_885                                             1 	(obj:-1)
t_n_979                                             1 	(obj:-1)
